4 
5  33 
6  03 18 33 40 48 56 
7  03 11 18 26 33 41 48 56 
8  03 11 18 26 33 41 48 56 
9  03 11 18 26 33 41 48 56 
10  03 11 18 26 33 41 48 56 
11  03 11 18 26 33 41 48 56 
12  03 11 18 26 33 41 48 56 
13  03 11 18 27 34 42 49 57 
14  04 12 19 27 34 42 49 57 
15  04 12 19 27 34 42 49 57 
16  04 12 19 27 34 42 49 57 
17  04 12 19 27 34 42 49 57 
18  04 12 19 27 34 42 49 57 
19  04 12 19 26 33 41 48 56 
20  03 11 18 26 33 41 48 59 
21  14 29 44 59 
22  14 28 43 54 
23  08 23 38 53 
0 
